Problem:    generic_froccs
Rows:       3
Columns:    9
Non-zeros:  27
Status:     OPTIMAL
Objective:  Income = 210000 (MAXimum)

   No.   Row name   St   Activity     Lower bound   Upper bound    Marginal
------ ------------ -- ------------- ------------- ------------- -------------
     1 Stock_constraint[soda]
                    NU          1500                        1500            20 
     2 Stock_constraint[wine]
                    NU          1000                        1000           180 
     3 Income       B         210000                             

   No. Column name  St   Activity     Lower bound   Upper bound    Marginal
------ ------------ -- ------------- ------------- ------------- -------------
     1 quantity[kisfroccs]
                    NL             0             0                       < eps
     2 quantity[nagyfroccs]
                    B        166.667             0               
     3 quantity[hosszulepes]
                    B        666.667             0               
     4 quantity[hazmester]
                    NL             0             0                         -30 
     5 quantity[vicehazmester]
                    NL             0             0                         -20 
     6 quantity[sport]
                    NL             0             0                        -510 
     7 quantity[krudy]
                    NL             0             0                         -40 
     8 quantity[soher]
                    NL             0             0                         -60 
     9 quantity[puskas]
                    NL             0             0                         -40 

Karush-Kuhn-Tucker optimality conditions:

KKT.PE: max.abs.err = 0.00e+00 on row 0
        max.rel.err = 0.00e+00 on row 0
        High quality

KKT.PB: max.abs.err = 0.00e+00 on row 0
        max.rel.err = 0.00e+00 on row 0
        High quality

KKT.DE: max.abs.err = 0.00e+00 on column 0
        max.rel.err = 0.00e+00 on column 0
        High quality

KKT.DB: max.abs.err = 0.00e+00 on row 0
        max.rel.err = 0.00e+00 on row 0
        High quality

End of output
